# Objective value = 2.9931284372621241e+02
x[0] 1
x[1] 1
x[2] 1
x[3] 0
x[4] 0
x[5] 0
x[6] 0
x[7] 1
x[8] 0
x[9] 0
x[10] 1
x[11] 1
x[12] 0
x[13] 1
x[14] 0
x[15] 1
x[16] 0
x[17] 0
x[18] 0
x[19] 0
x[20] 1
x[21] 0
x[22] 0
x[23] 0
x[24] 0
x[25] 1
x[26] 1
x[27] 0
x[28] 1
x[29] 1
x[30] 0
x[31] 1
x[32] 0
x[33] 1
x[34] 0
x[35] 1
x[36] 1
x[37] 0
x[38] 1
x[39] 0
x[40] 0
x[41] 0
x[42] 0
x[43] 0
x[44] 0
x[45] 1
x[46] 0
x[47] 0
x[48] 0
x[49] 0
x[50] 1
x[51] 0
x[52] 0
x[53] 1
x[54] 1
x[55] 0
x[56] 1
x[57] 0
x[58] 1
x[59] 1
x[60] 0
x[61] 1
x[62] 0
x[63] 0
x[64] 0
x[65] 1
x[66] 1
x[67] 0
x[68] 1
x[69] 0
x[70] 0
x[71] 0
x[72] 1
x[73] 0
x[74] 0
x[75] 0
x[76] 1
x[77] 1
x[78] 1
x[79] 0
x[80] 1
x[81] 0
x[82] 0
x[83] 0
x[84] 0
x[85] 1
x[86] 1
x[87] 0
x[88] 0
x[89] 1
x[90] 0
x[91] 0
x[92] 0
x[93] 0
x[94] 1
x[95] 1
x[96] 0
x[97] 1
x[98] 0
x[99] 0
x[100] 1
x[101] 0
x[102] 1
x[103] 0
x[104] 0
x[105] 0
x[106] 0
x[107] 1
x[108] 0
x[109] 1
x[110] 0
x[111] 1
x[112] 1
x[113] 1
x[114] 0
x[115] 0
x[116] 0
x[117] 0
x[118] 0
x[119] 1
x[120] 0
x[121] 1
x[122] 1
x[123] 1
x[124] 1
x[125] 0
x[126] 1
x[127] 0
x[128] 0
x[129] 0
x[130] 1
x[131] 1
x[132] 0
x[133] 1
x[134] 1
x[135] 0
x[136] 0
x[137] 1
x[138] 1
x[139] 1
x[140] 0
x[141] 0
x[142] 0
x[143] 1
x[144] 0
x[145] 0
x[146] 1
x[147] 1
x[148] 1
x[149] 0
x[150] 1
x[151] 0
x[152] 1
x[153] 1
x[154] 0
x[155] 1
x[156] 0
x[157] 0
x[158] 1
x[159] 1
x[160] 0
x[161] 1
x[162] 0
x[163] 0
x[164] 0
x[165] 1
x[166] 0
x[167] 1
x[168] 1
x[169] 0
x[170] 1
x[171] 1
x[172] 0
x[173] 0
x[174] 1
x[175] 1
x[176] 0
x[177] 0
x[178] 0
x[179] 1
x[180] 1
x[181] 0
x[182] 0
x[183] 1
x[184] 0
x[185] 1
x[186] 0
x[187] 0
x[188] 1
x[189] 0
x[190] 1
x[191] 0
x[192] 0
x[193] 1
x[194] 0
x[195] 1
x[196] 0
x[197] 0
x[198] 1
x[199] 0
x[200] 0
x[201] 0
x[202] 1
x[203] 1
x[204] 1
x[205] 1
x[206] 1
x[207] 0
x[208] 1
x[209] 1
x[210] 0
x[211] 0
x[212] 1
x[213] 1
x[214] 1
x[215] 0
x[216] 1
x[217] 0
x[218] 0
x[219] 1
x[220] 1
x[221] 1
x[222] 0
x[223] 0
x[224] 0
x[225] 1
x[226] 0
x[227] 1
x[228] 0
x[229] 0
x[230] 1
x[231] 1
x[232] 1
x[233] 0
x[234] 0
x[235] 0
x[236] 0
x[237] 0
x[238] 1
x[239] 0
x[240] 1
x[241] 0
x[242] 0
x[243] 0
x[244] 0
x[245] 1
x[246] 1
x[247] 0
x[248] 1
x[249] 0
x[250] 1
x[251] 1
x[252] 1
x[253] 1
x[254] 0
x[255] 1
x[256] 0
x[257] 1
x[258] 0
x[259] 0
x[260] 0
x[261] 1
x[262] 1
x[263] 0
x[264] 0
x[265] 0
x[266] 1
x[267] 1
x[268] 0
x[269] 0
x[270] 0
x[271] 1
x[272] 1
x[273] 1
x[274] 0
x[275] 1
x[276] 0
x[277] 1
x[278] 0
x[279] 1
x[280] 1
x[281] 0
x[282] 0
x[283] 0
x[284] 1
x[285] 0
x[286] 0
x[287] 0
x[288] 0
x[289] 0
x[290] 1
x[291] 0
x[292] 1
x[293] 0
x[294] 1
x[295] 1
x[296] 1
x[297] 0
x[298] 1
x[299] 0
x[300] 0
x[301] 1
x[302] 1
x[303] 1
x[304] 1
x[305] 1
x[306] 0
x[307] 1
x[308] 0
x[309] 0
x[310] 1
x[311] 0
x[312] 1
x[313] 0
x[314] 0
x[315] 1
x[316] 0
x[317] 0
x[318] 1
x[319] 0
x[320] 1
x[321] 0
x[322] 0
x[323] 0
x[324] 0
x[325] 1
x[326] 1
x[327] 1
x[328] 1
x[329] 1
x[330] 0
x[331] 1
x[332] 1
x[333] 1
x[334] 0
x[335] 0
x[336] 1
x[337] 0
x[338] 1
x[339] 1
x[340] 0
x[341] 1
x[342] 0
x[343] 0
x[344] 1
x[345] 0
x[346] 1
x[347] 1
x[348] 0
x[349] 0
x[350] 1
x[351] 0
x[352] 0
x[353] 1
x[354] 1
x[355] 0
x[356] 1
x[357] 1
x[358] 0
x[359] 1
x[360] 1
x[361] 1
x[362] 0
x[363] 1
x[364] 0
x[365] 1
x[366] 0
x[367] 1
x[368] 1
x[369] 0
x[370] 0
x[371] 0
x[372] 1
x[373] 1
x[374] 0
x[375] 1
x[376] 0
x[377] 1
x[378] 1
x[379] 0
x[380] 0
x[381] 0
x[382] 0
x[383] 1
x[384] 0
x[385] 1
x[386] 1
x[387] 0
x[388] 0
x[389] 1
x[390] 0
x[391] 0
x[392] 0
x[393] 0
x[394] 0
x[395] 0
x[396] 0
x[397] 1
x[398] 0
x[399] 0
x[400] 0
x[401] 1
x[402] 0
x[403] 1
x[404] 0
x[405] 1
x[406] 0
x[407] 1
x[408] 0
x[409] 0
x[410] 1
x[411] 1
x[412] 0
x[413] 1
x[414] 0
x[415] 0
x[416] 1
x[417] 1
x[418] 0
x[419] 0
x[420] 1
x[421] 0
x[422] 0
x[423] 0
x[424] 0
x[425] 1
x[426] 0
x[427] 1
x[428] 1
x[429] 0
x[430] 1
x[431] 1
x[432] 0
x[433] 1
x[434] 1
x[435] 1
x[436] 0
x[437] 1
x[438] 0
x[439] 1
x[440] 1
x[441] 1
x[442] 0
x[443] 0
x[444] 1
x[445] 0
x[446] 0
x[447] 1
x[448] 1
x[449] 0
x[450] 1
x[451] 0
x[452] 0
x[453] 1
x[454] 1
x[455] 0
x[456] 0
x[457] 0
x[458] 1
x[459] 0
x[460] 1
x[461] 1
x[462] 0
x[463] 1
x[464] 0
x[465] 0
x[466] 1
x[467] 0
x[468] 0
x[469] 1
x[470] 0
x[471] 1
x[472] 1
x[473] 0
x[474] 0
x[475] 0
x[476] 0
x[477] 0
x[478] 0
x[479] 0
x[480] 0
x[481] 1
x[482] 0
x[483] 1
x[484] 0
x[485] 1
x[486] 1
x[487] 1
x[488] 1
x[489] 1
x[490] 0
x[491] 0
x[492] 1
x[493] 0
x[494] 0
x[495] 0
x[496] 1
x[497] 1
x[498] 1
x[499] 0
x[500] 0
x[501] 0
x[502] 0
x[503] 0
x[504] 0
x[505] 1
x[506] 1
x[507] 1
x[508] 1
x[509] 0
x[510] 0
x[511] 0
x[512] 1
x[513] 0
x[514] 1
x[515] 0
x[516] 0
x[517] 1
x[518] 1
x[519] 1
x[520] 1
x[521] 0
x[522] 1
x[523] 1
x[524] 1
x[525] 0
x[526] 0
x[527] 1
x[528] 0
x[529] 0
x[530] 0
x[531] 1
x[532] 1
x[533] 1
x[534] 0
x[535] 1
x[536] 0
x[537] 1
x[538] 0
x[539] 1
x[540] 1
x[541] 0
x[542] 0
x[543] 1
x[544] 0
x[545] 0
x[546] 0
x[547] 1
x[548] 1
x[549] 0
x[550] 0
x[551] 1
x[552] 0
x[553] 1
x[554] 0
x[555] 1
x[556] 1
x[557] 0
x[558] 1
x[559] 1
x[560] 0
x[561] 0
x[562] 1
x[563] 0
x[564] 1
x[565] 1
x[566] 0
x[567] 0
x[568] 1
x[569] 1
x[570] 1
x[571] 1
x[572] 1
x[573] 0
x[574] 0
x[575] 0
x[576] 0
x[577] 1
x[578] 0
x[579] 0
x[580] 0
x[581] 1
x[582] 1
x[583] 0
x[584] 1
x[585] 1
x[586] 1
x[587] 0
x[588] 0
x[589] 1
x[590] 1
x[591] 0
x[592] 0
x[593] 1
x[594] 1
x[595] 1
x[596] 0
x[597] 0
x[598] 0
x[599] 0
x[600] 1
x[601] 0
x[602] 0
x[603] 0
x[604] 1
x[605] 1
x[606] 1
x[607] 1
x[608] 1
x[609] 1
x[610] 0
x[611] 0
x[612] 1
x[613] 0
x[614] 0
x[615] 1
x[616] 0
x[617] 1
x[618] 1
x[619] 0
x[620] 0
x[621] 1
x[622] 0
x[623] 0
x[624] 0
x[625] 1
x[626] 1
x[627] 1
x[628] 0
x[629] 1
x[630] 0
x[631] 1
x[632] 0
x[633] 1
x[634] 0
x[635] 0
x[636] 0
x[637] 0
x[638] 0
x[639] 1
x[640] 1
x[641] 0
x[642] 1
x[643] 0
x[644] 1
x[645] 1
x[646] 0
x[647] 0
x[648] 0
x[649] 0
x[650] 0
x[651] 0
x[652] 1
x[653] 1
x[654] 0
x[655] 1
x[656] 0
x[657] 1
x[658] 1
x[659] 0
x[660] 1
x[661] 0
x[662] 1
x[663] 0
x[664] 1
x[665] 0
x[666] 1
x[667] 0
x[668] 0
x[669] 0
x[670] 1
x[671] 1
x[672] 0
x[673] 1
x[674] 0
x[675] 0
x[676] 0
x[677] 1
x[678] 1
x[679] 1
x[680] 0
x[681] 1
x[682] 0
x[683] 1
x[684] 0
x[685] 0
x[686] 1
x[687] 0
x[688] 0
x[689] 0
x[690] 1
x[691] 0
x[692] 1
x[693] 1
x[694] 0
x[695] 0
x[696] 1
x[697] 1
x[698] 0
x[699] 0
x[700] 1
x[701] 0
x[702] 1
x[703] 0
x[704] 0
x[705] 1
x[706] 0
x[707] 1
x[708] 1
x[709] 0
x[710] 0
x[711] 0
x[712] 0
x[713] 0
x[714] 1
x[715] 1
x[716] 1
x[717] 0
x[718] 0
x[719] 1
x[720] 0
x[721] 1
x[722] 0
x[723] 0
x[724] 0
x[725] 1
x[726] 0
x[727] 1
x[728] 1
x[729] 0
x[730] 0
x[731] 1
x[732] 0
x[733] 0
x[734] 1
x[735] 1
x[736] 0
x[737] 1
x[738] 1
x[739] 0
x[740] 0
x[741] 0
x[742] 1
x[743] 0
x[744] 0
x[745] 0
x[746] 0
x[747] 0
x[748] 1
x[749] 0
x[750] 1
x[751] 1
x[752] 0
x[753] 1
x[754] 1
x[755] 0
x[756] 0
x[757] 1
x[758] 1
x[759] 0
x[760] 0
x[761] 1
x[762] 0
x[763] 0
x[764] 1
x[765] 0
x[766] 1
x[767] 0
x[768] 0
x[769] 1
x[770] 0
x[771] 0
x[772] 1
x[773] 1
x[774] 1
x[775] 0
x[776] 1
x[777] 1
x[778] 1
x[779] 1
x[780] 1
x[781] 1
x[782] 0
x[783] 0
x[784] 0
x[785] 0
x[786] 1
x[787] 1
x[788] 0
x[789] 1
x[790] 1
x[791] 1
x[792] 0
x[793] 1
x[794] 0
x[795] 0
x[796] 0
x[797] 0
x[798] 1
x[799] 1
x[800] 1
x[801] 0
x[802] 0
x[803] 0
x[804] 0
x[805] 1
x[806] 1
x[807] 0
x[808] 1
x[809] 0
x[810] 1
x[811] 1
x[812] 1
x[813] 0
x[814] 0
x[815] 1
x[816] 1
x[817] 0
x[818] 1
x[819] 0
x[820] 0
x[821] 1
x[822] 0
x[823] 1
x[824] 1
x[825] 1
x[826] 0
x[827] 1
x[828] 1
x[829] 0
x[830] 1
x[831] 1
x[832] 0
x[833] 1
x[834] 1
x[835] 1
x[836] 0
x[837] 0
x[838] 1
x[839] 0
x[840] 0
x[841] 1
x[842] 0
x[843] 0
x[844] 0
x[845] 0
x[846] 0
x[847] 0
x[848] 0
x[849] 1
x[850] 1
x[851] 1
x[852] 0
x[853] 0
x[854] 0
x[855] 1
x[856] 0
x[857] 0
x[858] 1
x[859] 1
x[860] 0
x[861] 0
x[862] 1
x[863] 1
x[864] 0
x[865] 1
x[866] 1
x[867] 1
x[868] 1
x[869] 1
x[870] 1
x[871] 1
x[872] 0
x[873] 1
x[874] 0
x[875] 1
x[876] 0
x[877] 0
x[878] 0
x[879] 1
x[880] 1
x[881] 0
x[882] 1
x[883] 0
x[884] 1
x[885] 1
x[886] 0
x[887] 1
x[888] 0
x[889] 1
x[890] 0
x[891] 0
x[892] 1
x[893] 1
x[894] 1
x[895] 1
x[896] 1
x[897] 0
x[898] 1
x[899] 1
x[900] 1
x[901] 0
x[902] 0
x[903] 0
x[904] 0
x[905] 0
x[906] 1
x[907] 1
x[908] 1
x[909] 1
x[910] 1
x[911] 1
x[912] 0
x[913] 1
x[914] 1
x[915] 1
x[916] 0
x[917] 1
x[918] 0
x[919] 0
x[920] 0
x[921] 0
x[922] 0
x[923] 1
x[924] 0
x[925] 1
x[926] 0
x[927] 1
x[928] 1
x[929] 1
x[930] 0
x[931] 0
x[932] 1
x[933] 0
x[934] 1
x[935] 0
x[936] 1
x[937] 1
x[938] 1
x[939] 0
x[940] 1
x[941] 1
x[942] 0
x[943] 0
x[944] 1
x[945] 1
x[946] 0
x[947] 0
x[948] 1
x[949] 1
x[950] 1
x[951] 0
x[952] 1
x[953] 1
x[954] 1
x[955] 1
x[956] 0
x[957] 1
x[958] 1
x[959] 0
x[960] 1
x[961] 1
x[962] 1
x[963] 1
x[964] 0
x[965] 0
x[966] 0
x[967] 0
x[968] 0
x[969] 0
x[970] 1
x[971] 1
x[972] 1
x[973] 0
x[974] 1
x[975] 1
x[976] 1
x[977] 0
x[978] 1
x[979] 0
x[980] 0
x[981] 1
x[982] 1
x[983] 1
x[984] 0
x[985] 0
x[986] 0
x[987] 0
x[988] 0
x[989] 0
x[990] 1
x[991] 0
x[992] 1
x[993] 1
x[994] 1
x[995] 0
x[996] 1
x[997] 0
x[998] 0
x[999] 0
